(define-fun epsilon () (_ FloatingPoint 8 24) ((_ to_fp 8 24) RTN 0.105170845985))
(define-fun const0 () (_ FloatingPoint 8 24) ((_ to_fp 8 24) RTN 0.000000000000000000000000000000000000000000000000000000000000000000000000000000000000000000000000000000000000000000000000000000000000000000000000000000000000000000000))
(define-fun const1 () (_ FloatingPoint 8 24) ((_ to_fp 8 24) RTN 1.000000000000000000000000000000000000000000000000000000000000000000000000000000000000000000000000000000000000000000000000000000000000000000000000000000000000000000000))
(declare-fun x () (_ FloatingPoint 8 24))
(assert (fp.isNormal x))
(define-fun const2 () (_ FloatingPoint 8 24) ((_ to_fp 8 24) RTN 2.000000000000000000000000000000000000000000000000000000000000000000000000000000000000000000000000000000000000000000000000000000000000000000000000000000000000000000000))
(define-fun arithexp6 () (_ FloatingPoint 8 24) (fp.mul RNE x x))
(assert (fp.isNormal arithexp6))
(define-fun arithexp4 () (_ FloatingPoint 8 24) (fp.div RNE arithexp6 const2))
(assert (fp.isNormal arithexp4))
(define-fun const3 () (_ FloatingPoint 8 24) ((_ to_fp 8 24) RTN 6.000000000000000000000000000000000000000000000000000000000000000000000000000000000000000000000000000000000000000000000000000000000000000000000000000000000000000000000))
(define-fun arithexp10 () (_ FloatingPoint 8 24) (fp.mul RNE x x))
(assert (fp.isNormal arithexp10))
(define-fun arithexp9 () (_ FloatingPoint 8 24) (fp.mul RNE x arithexp10))
(assert (fp.isNormal arithexp9))
(define-fun arithexp7 () (_ FloatingPoint 8 24) (fp.div RNE arithexp9 const3))
(assert (fp.isNormal arithexp7))
(define-fun const4 () (_ FloatingPoint 8 24) ((_ to_fp 8 24) RTN 24.000000000000000000000000000000000000000000000000000000000000000000000000000000000000000000000000000000000000000000000000000000000000000000000000000000000000000000000))
(define-fun arithexp13 () (_ FloatingPoint 8 24) (fp.mul RNE x x))
(assert (fp.isNormal arithexp13))
(define-fun arithexp12 () (_ FloatingPoint 8 24) (fp.mul RNE x arithexp13))
(assert (fp.isNormal arithexp12))
(define-fun arithexp11 () (_ FloatingPoint 8 24) (fp.mul RNE x arithexp12))
(assert (fp.isNormal arithexp11))
(define-fun arithexp8 () (_ FloatingPoint 8 24) (fp.div RNE arithexp11 const4))
(assert (fp.isNormal arithexp8))
(define-fun arithexp5 () (_ FloatingPoint 8 24) (fp.add RNE arithexp7 arithexp8))
(assert (fp.isNormal arithexp5))
(define-fun arithexp3 () (_ FloatingPoint 8 24) (fp.add RNE arithexp4 arithexp5))
(assert (fp.isNormal arithexp3))
(define-fun arithexp2 () (_ FloatingPoint 8 24) (fp.add RNE x arithexp3))
(assert (fp.isNormal arithexp2))
(define-fun arithexp1 () (_ FloatingPoint 8 24) (fp.add RNE const1 arithexp2))
(assert (fp.isNormal arithexp1))
(define-fun arithexp () (_ FloatingPoint 8 24) (fp.sub RNE arithexp1 const1))
(assert (fp.isNormal arithexp))
(define-fun prop () Bool (fp.gt arithexp epsilon))
(define-fun const5 () (_ FloatingPoint 8 24) ((_ to_fp 8 24) RTN (- 0.100000001490116119384765625000000000000000000000000000000000000000000000000000000000000000000000000000000000000000000000000000000000000000000000000000000000000000000)))
(define-fun prop1 () Bool (fp.geq x const5))
(define-fun const6 () (_ FloatingPoint 8 24) ((_ to_fp 8 24) RTN 0.100000001490116119384765625000000000000000000000000000000000000000000000000000000000000000000000000000000000000000000000000000000000000000000000000000000000000000000))
(define-fun prop2 () Bool (fp.leq x const6))
(define-fun propexp1 () Bool (and prop1 prop2))
(define-fun propexp () Bool (and prop propexp1))
(assert propexp)
(check-sat)
;(get-model)
(exit)